(declare-fun sm.0 () Int)
(declare-fun ph.0 () Int)
(declare-fun sc.0 () Int)
(declare-fun sm.1 () Int)
(declare-fun ph.1 () Int)
(declare-fun sc.1 () Int)
(declare-fun sm.2 () Int)
(declare-fun ph.2 () Int)
(declare-fun sc.2 () Int)
(declare-fun sm.3 () Int)
(declare-fun ph.3 () Int)
(declare-fun sc.3 () Int)
(declare-fun sm.4 () Int)
(declare-fun ph.4 () Int)
(declare-fun sc.4 () Int)
(declare-fun sm.5 () Int)
(declare-fun ph.5 () Int)
(declare-fun sc.5 () Int)
(declare-fun sm.6 () Int)
(declare-fun ph.6 () Int)
(declare-fun sc.6 () Int)
(declare-fun sm.7 () Int)
(declare-fun ph.7 () Int)
(declare-fun sc.7 () Int)
(declare-fun sm.8 () Int)
(declare-fun ph.8 () Int)
(declare-fun sc.8 () Int)
(declare-fun sm.9 () Int)
(declare-fun ph.9 () Int)
(declare-fun sc.9 () Int)
(declare-fun sm.10 () Int)
(declare-fun ph.10 () Int)
(declare-fun sc.10 () Int)
(declare-fun sm.11 () Int)
(declare-fun ph.11 () Int)
(declare-fun sc.11 () Int)
(declare-fun sm.12 () Int)
(declare-fun ph.12 () Int)
(declare-fun sc.12 () Int)
(declare-fun sm.13 () Int)
(declare-fun ph.13 () Int)
(declare-fun sc.13 () Int)
(declare-fun sm.14 () Int)
(declare-fun ph.14 () Int)
(declare-fun sc.14 () Int)
(declare-fun sm.15 () Int)
(declare-fun ph.15 () Int)
(declare-fun sc.15 () Int)
(declare-fun sm.16 () Int)
(declare-fun ph.16 () Int)
(declare-fun sc.16 () Int)
(declare-fun sm.17 () Int)
(declare-fun ph.17 () Int)
(declare-fun sc.17 () Int)
(declare-fun sm.18 () Int)
(declare-fun ph.18 () Int)
(declare-fun sc.18 () Int)
(declare-fun sm.19 () Int)
(declare-fun ph.19 () Int)
(declare-fun sc.19 () Int)
(declare-fun sm.20 () Int)
(declare-fun ph.20 () Int)
(declare-fun sc.20 () Int)
(declare-fun sm.21 () Int)
(declare-fun ph.21 () Int)
(declare-fun sc.21 () Int)
(declare-fun sm.22 () Int)
(declare-fun ph.22 () Int)
(declare-fun sc.22 () Int)
(declare-fun sm.23 () Int)
(declare-fun ph.23 () Int)
(declare-fun sc.23 () Int)
(declare-fun sm.24 () Int)
(declare-fun ph.24 () Int)
(declare-fun sc.24 () Int)
(declare-fun sm.25 () Int)
(declare-fun ph.25 () Int)
(declare-fun sc.25 () Int)
(declare-fun sm.26 () Int)
(declare-fun ph.26 () Int)
(declare-fun sc.26 () Int)
(declare-fun sm.27 () Int)
(declare-fun ph.27 () Int)
(declare-fun sc.27 () Int)
(declare-fun sm.28 () Int)
(declare-fun ph.28 () Int)
(declare-fun sc.28 () Int)
(declare-fun sm.29 () Int)
(declare-fun ph.29 () Int)
(declare-fun sc.29 () Int)
(declare-fun sm.30 () Int)
(declare-fun ph.30 () Int)
(declare-fun sc.30 () Int)
(declare-fun sm.31 () Int)
(declare-fun ph.31 () Int)
(declare-fun sc.31 () Int)
(declare-fun sm.32 () Int)
(declare-fun ph.32 () Int)
(declare-fun sc.32 () Int)
(declare-fun sm.33 () Int)
(declare-fun ph.33 () Int)
(declare-fun sc.33 () Int)
(declare-fun sm.34 () Int)
(declare-fun ph.34 () Int)
(declare-fun sc.34 () Int)
(declare-fun sm.35 () Int)
(declare-fun ph.35 () Int)
(declare-fun sc.35 () Int)
(declare-fun sm.36 () Int)
(declare-fun ph.36 () Int)
(declare-fun sc.36 () Int)
(declare-fun sm.37 () Int)
(declare-fun ph.37 () Int)
(declare-fun sc.37 () Int)
(declare-fun sm.38 () Int)
(declare-fun ph.38 () Int)
(declare-fun sc.38 () Int)
(declare-fun sm.39 () Int)
(declare-fun ph.39 () Int)
(declare-fun sc.39 () Int)
(declare-fun sm.40 () Int)
(declare-fun ph.40 () Int)
(declare-fun sc.40 () Int)
(declare-fun sm.41 () Int)
(declare-fun ph.41 () Int)
(declare-fun sc.41 () Int)
(declare-fun sm.42 () Int)
(declare-fun ph.42 () Int)
(declare-fun sc.42 () Int)
(declare-fun sm.43 () Int)
(declare-fun ph.43 () Int)
(declare-fun sc.43 () Int)
(declare-fun sm.44 () Int)
(declare-fun ph.44 () Int)
(declare-fun sc.44 () Int)
(declare-fun sm.45 () Int)
(declare-fun ph.45 () Int)
(declare-fun sc.45 () Int)
(declare-fun sm.46 () Int)
(declare-fun ph.46 () Int)
(declare-fun sc.46 () Int)
(declare-fun sm.47 () Int)
(declare-fun ph.47 () Int)
(declare-fun sc.47 () Int)
(declare-fun sm.48 () Int)
(declare-fun ph.48 () Int)
(declare-fun sc.48 () Int)
(declare-fun sm.49 () Int)
(declare-fun ph.49 () Int)
(declare-fun sc.49 () Int)
(declare-fun sm.50 () Int)
(declare-fun ph.50 () Int)
(declare-fun sc.50 () Int)
(declare-fun sm.51 () Int)
(declare-fun ph.51 () Int)
(declare-fun sc.51 () Int)
(declare-fun sm.52 () Int)
(declare-fun ph.52 () Int)
(declare-fun sc.52 () Int)
(declare-fun sm.53 () Int)
(declare-fun ph.53 () Int)
(declare-fun sc.53 () Int)
(declare-fun sm.54 () Int)
(declare-fun ph.54 () Int)
(declare-fun sc.54 () Int)
(declare-fun sm.55 () Int)
(declare-fun ph.55 () Int)
(declare-fun sc.55 () Int)
(declare-fun sm.56 () Int)
(declare-fun ph.56 () Int)
(declare-fun sc.56 () Int)
(declare-fun sm.57 () Int)
(declare-fun ph.57 () Int)
(declare-fun sc.57 () Int)
(declare-fun sm.58 () Int)
(declare-fun ph.58 () Int)
(declare-fun sc.58 () Int)
(declare-fun sm.59 () Int)
(declare-fun ph.59 () Int)
(declare-fun sc.59 () Int)
(declare-fun sm.60 () Int)
(declare-fun ph.60 () Int)
(declare-fun sc.60 () Int)
(declare-fun sm.61 () Int)
(declare-fun ph.61 () Int)
(declare-fun sc.61 () Int)
(declare-fun sm.62 () Int)
(declare-fun ph.62 () Int)
(declare-fun sc.62 () Int)
(declare-fun sm.63 () Int)
(declare-fun ph.63 () Int)
(declare-fun sc.63 () Int)
(declare-fun sm.64 () Int)
(declare-fun ph.64 () Int)
(declare-fun sc.64 () Int)
(declare-fun sm.65 () Int)
(declare-fun ph.65 () Int)
(declare-fun sc.65 () Int)
(declare-fun sm.66 () Int)
(declare-fun ph.66 () Int)
(declare-fun sc.66 () Int)
(declare-fun sm.67 () Int)
(declare-fun ph.67 () Int)
(declare-fun sc.67 () Int)
(declare-fun sm.68 () Int)
(declare-fun ph.68 () Int)
(declare-fun sc.68 () Int)
(declare-fun sm.69 () Int)
(declare-fun ph.69 () Int)
(declare-fun sc.69 () Int)
(declare-fun sm.70 () Int)
(declare-fun ph.70 () Int)
(declare-fun sc.70 () Int)
(declare-fun sm.71 () Int)
(declare-fun ph.71 () Int)
(declare-fun sc.71 () Int)
(declare-fun sm.72 () Int)
(declare-fun ph.72 () Int)
(declare-fun sc.72 () Int)
(declare-fun sm.73 () Int)
(declare-fun ph.73 () Int)
(declare-fun sc.73 () Int)
(declare-fun sm.74 () Int)
(declare-fun ph.74 () Int)
(declare-fun sc.74 () Int)
(declare-fun sm.75 () Int)
(declare-fun ph.75 () Int)
(declare-fun sc.75 () Int)
(declare-fun sm.76 () Int)
(declare-fun ph.76 () Int)
(declare-fun sc.76 () Int)
(declare-fun sm.77 () Int)
(declare-fun ph.77 () Int)
(declare-fun sc.77 () Int)
(declare-fun sm.78 () Int)
(declare-fun ph.78 () Int)
(declare-fun sc.78 () Int)
(declare-fun sm.79 () Int)
(declare-fun ph.79 () Int)
(declare-fun sc.79 () Int)
(declare-fun sm.80 () Int)
(declare-fun ph.80 () Int)
(declare-fun sc.80 () Int)
(declare-fun sm.81 () Int)
(declare-fun ph.81 () Int)
(declare-fun sc.81 () Int)
(declare-fun sm.82 () Int)
(declare-fun ph.82 () Int)
(declare-fun sc.82 () Int)
(declare-fun sm.83 () Int)
(declare-fun ph.83 () Int)
(declare-fun sc.83 () Int)
(declare-fun sm.84 () Int)
(declare-fun ph.84 () Int)
(declare-fun sc.84 () Int)
(declare-fun sm.85 () Int)
(declare-fun ph.85 () Int)
(declare-fun sc.85 () Int)
(declare-fun sm.86 () Int)
(declare-fun ph.86 () Int)
(declare-fun sc.86 () Int)
(declare-fun sm.87 () Int)
(declare-fun ph.87 () Int)
(declare-fun sc.87 () Int)
(declare-fun sm.88 () Int)
(declare-fun ph.88 () Int)
(declare-fun sc.88 () Int)
(declare-fun sm.89 () Int)
(declare-fun ph.89 () Int)
(declare-fun sc.89 () Int)
(declare-fun sm.90 () Int)
(declare-fun ph.90 () Int)
(declare-fun sc.90 () Int)
(declare-fun sm.91 () Int)
(declare-fun ph.91 () Int)
(declare-fun sc.91 () Int)
(declare-fun sm.92 () Int)
(declare-fun ph.92 () Int)
(declare-fun sc.92 () Int)
(declare-fun sm.93 () Int)
(declare-fun ph.93 () Int)
(declare-fun sc.93 () Int)
(declare-fun sm.94 () Int)
(declare-fun ph.94 () Int)
(declare-fun sc.94 () Int)
(declare-fun sm.95 () Int)
(declare-fun ph.95 () Int)
(declare-fun sc.95 () Int)
(declare-fun sm.96 () Int)
(declare-fun ph.96 () Int)
(declare-fun sc.96 () Int)
(declare-fun sm.97 () Int)
(declare-fun ph.97 () Int)
(declare-fun sc.97 () Int)
(declare-fun sm.98 () Int)
(declare-fun ph.98 () Int)
(declare-fun sc.98 () Int)
(declare-fun sm.99 () Int)
(declare-fun ph.99 () Int)
(declare-fun sc.99 () Int)
(declare-fun sm.100 () Int)
(declare-fun ph.100 () Int)
(declare-fun sc.100 () Int)
(declare-fun sm.101 () Int)
(declare-fun ph.101 () Int)
(declare-fun sc.101 () Int)
(declare-fun sm.102 () Int)
(declare-fun ph.102 () Int)
(declare-fun sc.102 () Int)
(declare-fun sm.103 () Int)
(declare-fun ph.103 () Int)
(declare-fun sc.103 () Int)
(declare-fun sm.104 () Int)
(declare-fun ph.104 () Int)
(declare-fun sc.104 () Int)
(declare-fun sm.105 () Int)
(declare-fun ph.105 () Int)
(declare-fun sc.105 () Int)
(declare-fun sm.106 () Int)
(declare-fun ph.106 () Int)
(declare-fun sc.106 () Int)
(declare-fun sm.107 () Int)
(declare-fun ph.107 () Int)
(declare-fun sc.107 () Int)
(declare-fun sm.108 () Int)
(declare-fun ph.108 () Int)
(declare-fun sc.108 () Int)
(declare-fun sm.109 () Int)
(declare-fun ph.109 () Int)
(declare-fun sc.109 () Int)
(declare-fun sm.110 () Int)
(declare-fun ph.110 () Int)
(declare-fun sc.110 () Int)
(declare-fun sm.111 () Int)
(declare-fun ph.111 () Int)
(declare-fun sc.111 () Int)
(declare-fun sm.112 () Int)
(declare-fun ph.112 () Int)
(declare-fun sc.112 () Int)
(declare-fun sm.113 () Int)
(declare-fun ph.113 () Int)
(declare-fun sc.113 () Int)
(declare-fun sm.114 () Int)
(declare-fun ph.114 () Int)
(declare-fun sc.114 () Int)
(declare-fun sm.115 () Int)
(declare-fun ph.115 () Int)
(declare-fun sc.115 () Int)
(declare-fun sm.116 () Int)
(declare-fun ph.116 () Int)
(declare-fun sc.116 () Int)
(declare-fun sm.117 () Int)
(declare-fun ph.117 () Int)
(declare-fun sc.117 () Int)
(declare-fun sm.118 () Int)
(declare-fun ph.118 () Int)
(declare-fun sc.118 () Int)
(declare-fun sm.119 () Int)
(declare-fun ph.119 () Int)
(declare-fun sc.119 () Int)
(declare-fun sm.120 () Int)
(declare-fun ph.120 () Int)
(declare-fun sc.120 () Int)
(declare-fun sm.121 () Int)
(declare-fun ph.121 () Int)
(declare-fun sc.121 () Int)
(declare-fun sm.122 () Int)
(declare-fun ph.122 () Int)
(declare-fun sc.122 () Int)
(declare-fun sm.123 () Int)
(declare-fun ph.123 () Int)
(declare-fun sc.123 () Int)
(declare-fun sm.124 () Int)
(declare-fun ph.124 () Int)
(declare-fun sc.124 () Int)
(declare-fun sm.125 () Int)
(declare-fun ph.125 () Int)
(declare-fun sc.125 () Int)
(declare-fun sm.126 () Int)
(declare-fun ph.126 () Int)
(declare-fun sc.126 () Int)
(declare-fun sm.127 () Int)
(declare-fun ph.127 () Int)
(declare-fun sc.127 () Int)
(declare-fun sm.128 () Int)
(declare-fun ph.128 () Int)
(declare-fun sc.128 () Int)
(declare-fun sm.129 () Int)
(declare-fun ph.129 () Int)
(declare-fun sc.129 () Int)
(declare-fun sm.130 () Int)
(declare-fun ph.130 () Int)
(declare-fun sc.130 () Int)
(assert (and (= 0 sc.0) (= 1 ph.0) (= 0 sm.0)))
(assert (let ((a!1 (or (and (< sc.0 127)
                    (= sc.1 (+ sc.0 1))
                    (= ph.1 ph.0)
                    (= sm.1 sm.0))
               (and (> sc.0 0)
                    (= ph.0 1)
                    (< sm.0 127)
                    (= sc.1 (- sc.0 1))
                    (= ph.1 ph.0)
                    (= sm.1 (+ sm.0 1)))
               (and (> sc.0 0)
                    (= ph.0 1)
                    (= sc.1 sc.0)
                    (= ph.1 2)
                    (= sm.1 sm.0))
               (and (> sc.0 0)
                    (= ph.0 2)
                    (< sm.0 127)
                    (= sc.1 (- sc.0 1))
                    (= ph.1 1)
                    (= sm.1 (+ sm.0 1)))
               (and (> sm.0 0) (= sc.1 sc.0) (= ph.1 ph.0) (= sm.1 (- sm.0 1))))))
  (and a!1
       (>= sc.1 0)
       (<= sc.1 127)
       (or (= ph.1 1) (= ph.1 2))
       (>= sm.1 0)
       (<= sm.1 127))))
(assert (let ((a!1 (or (and (< sc.1 127)
                    (= sc.2 (+ sc.1 1))
                    (= ph.2 ph.1)
                    (= sm.2 sm.1))
               (and (> sc.1 0)
                    (= ph.1 1)
                    (< sm.1 127)
                    (= sc.2 (- sc.1 1))
                    (= ph.2 ph.1)
                    (= sm.2 (+ sm.1 1)))
               (and (> sc.1 0)
                    (= ph.1 1)
                    (= sc.2 sc.1)
                    (= ph.2 2)
                    (= sm.2 sm.1))
               (and (> sc.1 0)
                    (= ph.1 2)
                    (< sm.1 127)
                    (= sc.2 (- sc.1 1))
                    (= ph.2 1)
                    (= sm.2 (+ sm.1 1)))
               (and (> sm.1 0) (= sc.2 sc.1) (= ph.2 ph.1) (= sm.2 (- sm.1 1))))))
  (and a!1
       (>= sc.2 0)
       (<= sc.2 127)
       (or (= ph.2 1) (= ph.2 2))
       (>= sm.2 0)
       (<= sm.2 127))))
(assert (let ((a!1 (or (and (< sc.2 127)
                    (= sc.3 (+ sc.2 1))
                    (= ph.3 ph.2)
                    (= sm.3 sm.2))
               (and (> sc.2 0)
                    (= ph.2 1)
                    (< sm.2 127)
                    (= sc.3 (- sc.2 1))
                    (= ph.3 ph.2)
                    (= sm.3 (+ sm.2 1)))
               (and (> sc.2 0)
                    (= ph.2 1)
                    (= sc.3 sc.2)
                    (= ph.3 2)
                    (= sm.3 sm.2))
               (and (> sc.2 0)
                    (= ph.2 2)
                    (< sm.2 127)
                    (= sc.3 (- sc.2 1))
                    (= ph.3 1)
                    (= sm.3 (+ sm.2 1)))
               (and (> sm.2 0) (= sc.3 sc.2) (= ph.3 ph.2) (= sm.3 (- sm.2 1))))))
  (and a!1
       (>= sc.3 0)
       (<= sc.3 127)
       (or (= ph.3 1) (= ph.3 2))
       (>= sm.3 0)
       (<= sm.3 127))))
(assert (let ((a!1 (or (and (< sc.3 127)
                    (= sc.4 (+ sc.3 1))
                    (= ph.4 ph.3)
                    (= sm.4 sm.3))
               (and (> sc.3 0)
                    (= ph.3 1)
                    (< sm.3 127)
                    (= sc.4 (- sc.3 1))
                    (= ph.4 ph.3)
                    (= sm.4 (+ sm.3 1)))
               (and (> sc.3 0)
                    (= ph.3 1)
                    (= sc.4 sc.3)
                    (= ph.4 2)
                    (= sm.4 sm.3))
               (and (> sc.3 0)
                    (= ph.3 2)
                    (< sm.3 127)
                    (= sc.4 (- sc.3 1))
                    (= ph.4 1)
                    (= sm.4 (+ sm.3 1)))
               (and (> sm.3 0) (= sc.4 sc.3) (= ph.4 ph.3) (= sm.4 (- sm.3 1))))))
  (and a!1
       (>= sc.4 0)
       (<= sc.4 127)
       (or (= ph.4 1) (= ph.4 2))
       (>= sm.4 0)
       (<= sm.4 127))))
(assert (and (= 1 sc.4) (= 1 ph.4) (= 0 sm.4)))
(assert (and (= 2 sc.5) (= 1 ph.5) (= 0 sm.5)))
(assert (and (= 3 sc.6) (= 1 ph.6) (= 0 sm.6)))
(assert (and (= 4 sc.7) (= 1 ph.7) (= 0 sm.7)))
(assert (and (= 5 sc.8) (= 1 ph.8) (= 0 sm.8)))
(assert (and (= 6 sc.9) (= 1 ph.9) (= 0 sm.9)))
(assert (and (= 7 sc.10) (= 1 ph.10) (= 0 sm.10)))
(assert (and (= 8 sc.11) (= 1 ph.11) (= 0 sm.11)))
(assert (and (= 9 sc.12) (= 1 ph.12) (= 0 sm.12)))
(assert (and (= 10 sc.13) (= 1 ph.13) (= 0 sm.13)))
(assert (and (= 11 sc.14) (= 1 ph.14) (= 0 sm.14)))
(assert (and (= 12 sc.15) (= 1 ph.15) (= 0 sm.15)))
(assert (and (= 13 sc.16) (= 1 ph.16) (= 0 sm.16)))
(assert (and (= 14 sc.17) (= 1 ph.17) (= 0 sm.17)))
(assert (and (= 15 sc.18) (= 1 ph.18) (= 0 sm.18)))
(assert (and (= 16 sc.19) (= 1 ph.19) (= 0 sm.19)))
(assert (and (= 17 sc.20) (= 1 ph.20) (= 0 sm.20)))
(assert (and (= 18 sc.21) (= 1 ph.21) (= 0 sm.21)))
(assert (and (= 19 sc.22) (= 1 ph.22) (= 0 sm.22)))
(assert (and (= 20 sc.23) (= 1 ph.23) (= 0 sm.23)))
(assert (and (= 21 sc.24) (= 1 ph.24) (= 0 sm.24)))
(assert (and (= 22 sc.25) (= 1 ph.25) (= 0 sm.25)))
(assert (and (= 23 sc.26) (= 1 ph.26) (= 0 sm.26)))
(assert (and (= 24 sc.27) (= 1 ph.27) (= 0 sm.27)))
(assert (and (= 25 sc.28) (= 1 ph.28) (= 0 sm.28)))
(assert (and (= 26 sc.29) (= 1 ph.29) (= 0 sm.29)))
(assert (and (= 27 sc.30) (= 1 ph.30) (= 0 sm.30)))
(assert (and (= 28 sc.31) (= 1 ph.31) (= 0 sm.31)))
(assert (and (= 29 sc.32) (= 1 ph.32) (= 0 sm.32)))
(assert (and (= 30 sc.33) (= 1 ph.33) (= 0 sm.33)))
(assert (and (= 31 sc.34) (= 1 ph.34) (= 0 sm.34)))
(assert (and (= 32 sc.35) (= 1 ph.35) (= 0 sm.35)))
(assert (and (= 33 sc.36) (= 1 ph.36) (= 0 sm.36)))
(assert (and (= 34 sc.37) (= 1 ph.37) (= 0 sm.37)))
(assert (and (= 35 sc.38) (= 1 ph.38) (= 0 sm.38)))
(assert (and (= 36 sc.39) (= 1 ph.39) (= 0 sm.39)))
(assert (and (= 37 sc.40) (= 1 ph.40) (= 0 sm.40)))
(assert (and (= 38 sc.41) (= 1 ph.41) (= 0 sm.41)))
(assert (and (= 39 sc.42) (= 1 ph.42) (= 0 sm.42)))
(assert (and (= 40 sc.43) (= 1 ph.43) (= 0 sm.43)))
(assert (and (= 41 sc.44) (= 1 ph.44) (= 0 sm.44)))
(assert (and (= 42 sc.45) (= 1 ph.45) (= 0 sm.45)))
(assert (and (= 43 sc.46) (= 1 ph.46) (= 0 sm.46)))
(assert (and (= 44 sc.47) (= 1 ph.47) (= 0 sm.47)))
(assert (and (= 45 sc.48) (= 1 ph.48) (= 0 sm.48)))
(assert (and (= 46 sc.49) (= 1 ph.49) (= 0 sm.49)))
(assert (and (= 47 sc.50) (= 1 ph.50) (= 0 sm.50)))
(assert (and (= 48 sc.51) (= 1 ph.51) (= 0 sm.51)))
(assert (and (= 49 sc.52) (= 1 ph.52) (= 0 sm.52)))
(assert (and (= 50 sc.53) (= 1 ph.53) (= 0 sm.53)))
(assert (and (= 51 sc.54) (= 1 ph.54) (= 0 sm.54)))
(assert (and (= 52 sc.55) (= 1 ph.55) (= 0 sm.55)))
(assert (and (= 53 sc.56) (= 1 ph.56) (= 0 sm.56)))
(assert (and (= 54 sc.57) (= 1 ph.57) (= 0 sm.57)))
(assert (and (= 55 sc.58) (= 1 ph.58) (= 0 sm.58)))
(assert (and (= 56 sc.59) (= 1 ph.59) (= 0 sm.59)))
(assert (and (= 57 sc.60) (= 1 ph.60) (= 0 sm.60)))
(assert (and (= 58 sc.61) (= 1 ph.61) (= 0 sm.61)))
(assert (and (= 59 sc.62) (= 1 ph.62) (= 0 sm.62)))
(assert (and (= 60 sc.63) (= 1 ph.63) (= 0 sm.63)))
(assert (and (= 61 sc.64) (= 1 ph.64) (= 0 sm.64)))
(assert (and (= 62 sc.65) (= 1 ph.65) (= 0 sm.65)))
(assert (and (= 63 sc.66) (= 1 ph.66) (= 0 sm.66)))
(assert (and (= 64 sc.67) (= 1 ph.67) (= 0 sm.67)))
(assert (and (= 65 sc.68) (= 1 ph.68) (= 0 sm.68)))
(assert (and (= 66 sc.69) (= 1 ph.69) (= 0 sm.69)))
(assert (and (= 67 sc.70) (= 1 ph.70) (= 0 sm.70)))
(assert (and (= 68 sc.71) (= 1 ph.71) (= 0 sm.71)))
(assert (and (= 69 sc.72) (= 1 ph.72) (= 0 sm.72)))
(assert (and (= 70 sc.73) (= 1 ph.73) (= 0 sm.73)))
(assert (and (= 71 sc.74) (= 1 ph.74) (= 0 sm.74)))
(assert (and (= 72 sc.75) (= 1 ph.75) (= 0 sm.75)))
(assert (and (= 73 sc.76) (= 1 ph.76) (= 0 sm.76)))
(assert (and (= 74 sc.77) (= 1 ph.77) (= 0 sm.77)))
(assert (and (= 75 sc.78) (= 1 ph.78) (= 0 sm.78)))
(assert (and (= 76 sc.79) (= 1 ph.79) (= 0 sm.79)))
(assert (and (= 77 sc.80) (= 1 ph.80) (= 0 sm.80)))
(assert (and (= 78 sc.81) (= 1 ph.81) (= 0 sm.81)))
(assert (and (= 79 sc.82) (= 1 ph.82) (= 0 sm.82)))
(assert (and (= 80 sc.83) (= 1 ph.83) (= 0 sm.83)))
(assert (and (= 81 sc.84) (= 1 ph.84) (= 0 sm.84)))
(assert (and (= 82 sc.85) (= 1 ph.85) (= 0 sm.85)))
(assert (and (= 83 sc.86) (= 1 ph.86) (= 0 sm.86)))
(assert (and (= 84 sc.87) (= 1 ph.87) (= 0 sm.87)))
(assert (and (= 85 sc.88) (= 1 ph.88) (= 0 sm.88)))
(assert (and (= 86 sc.89) (= 1 ph.89) (= 0 sm.89)))
(assert (and (= 87 sc.90) (= 1 ph.90) (= 0 sm.90)))
(assert (and (= 88 sc.91) (= 1 ph.91) (= 0 sm.91)))
(assert (and (= 89 sc.92) (= 1 ph.92) (= 0 sm.92)))
(assert (and (= 90 sc.93) (= 1 ph.93) (= 0 sm.93)))
(assert (and (= 91 sc.94) (= 1 ph.94) (= 0 sm.94)))
(assert (and (= 92 sc.95) (= 1 ph.95) (= 0 sm.95)))
(assert (and (= 93 sc.96) (= 1 ph.96) (= 0 sm.96)))
(assert (and (= 94 sc.97) (= 1 ph.97) (= 0 sm.97)))
(assert (and (= 95 sc.98) (= 1 ph.98) (= 0 sm.98)))
(assert (and (= 96 sc.99) (= 1 ph.99) (= 0 sm.99)))
(assert (and (= 97 sc.100) (= 1 ph.100) (= 0 sm.100)))
(assert (and (= 98 sc.101) (= 1 ph.101) (= 0 sm.101)))
(assert (and (= 99 sc.102) (= 1 ph.102) (= 0 sm.102)))
(assert (and (= 100 sc.103) (= 1 ph.103) (= 0 sm.103)))
(assert (and (= 101 sc.104) (= 1 ph.104) (= 0 sm.104)))
(assert (and (= 102 sc.105) (= 1 ph.105) (= 0 sm.105)))
(assert (and (= 103 sc.106) (= 1 ph.106) (= 0 sm.106)))
(assert (and (= 104 sc.107) (= 1 ph.107) (= 0 sm.107)))
(assert (and (= 105 sc.108) (= 1 ph.108) (= 0 sm.108)))
(assert (and (= 106 sc.109) (= 1 ph.109) (= 0 sm.109)))
(assert (and (= 107 sc.110) (= 1 ph.110) (= 0 sm.110)))
(assert (and (= 108 sc.111) (= 1 ph.111) (= 0 sm.111)))
(assert (and (= 109 sc.112) (= 1 ph.112) (= 0 sm.112)))
(assert (and (= 110 sc.113) (= 1 ph.113) (= 0 sm.113)))
(assert (and (= 111 sc.114) (= 1 ph.114) (= 0 sm.114)))
(assert (and (= 112 sc.115) (= 1 ph.115) (= 0 sm.115)))
(assert (and (= 113 sc.116) (= 1 ph.116) (= 0 sm.116)))
(assert (and (= 114 sc.117) (= 1 ph.117) (= 0 sm.117)))
(assert (and (= 115 sc.118) (= 1 ph.118) (= 0 sm.118)))
(assert (and (= 116 sc.119) (= 1 ph.119) (= 0 sm.119)))
(assert (and (= 117 sc.120) (= 1 ph.120) (= 0 sm.120)))
(assert (and (= 118 sc.121) (= 1 ph.121) (= 0 sm.121)))
(assert (and (= 119 sc.122) (= 1 ph.122) (= 0 sm.122)))
(assert (and (= 120 sc.123) (= 1 ph.123) (= 0 sm.123)))
(assert (and (= 121 sc.124) (= 1 ph.124) (= 0 sm.124)))
(assert (and (= 122 sc.125) (= 1 ph.125) (= 0 sm.125)))
(assert (and (= 123 sc.126) (= 1 ph.126) (= 0 sm.126)))
(assert (and (= 124 sc.127) (= 1 ph.127) (= 0 sm.127)))
(assert (and (= 125 sc.128) (= 1 ph.128) (= 0 sm.128)))
(assert (and (= 126 sc.129) (= 1 ph.129) (= 0 sm.129)))
(assert (and (= 127 sc.130) (= 1 ph.130) (= 0 sm.130)))
